# Objective value = 1.9681638991511004e+03
x[0] 0
x[1] 1
x[2] 1
x[3] 1
x[4] 1
x[5] 0
x[6] 1
x[7] 1
x[8] 1
x[9] 1
x[10] 0
x[11] 1
x[12] 0
x[13] 1
x[14] 0
x[15] 1
x[16] 1
x[17] 0
x[18] 0
x[19] 1
x[20] 0
x[21] 0
x[22] 0
x[23] 1
x[24] 0
x[25] 1
x[26] 0
x[27] 1
x[28] 0
x[29] 0
x[30] 1
x[31] 1
x[32] 0
x[33] 1
x[34] 1
x[35] 1
x[36] 1
x[37] 1
x[38] 0
x[39] 1
x[40] 1
x[41] 0
x[42] 1
x[43] 1
x[44] 0
x[45] 0
x[46] 1
x[47] 0
x[48] 1
x[49] 1
x[50] 0
x[51] 0
x[52] 1
x[53] 0
x[54] 0
x[55] 1
x[56] 0
x[57] 1
x[58] 0
x[59] 1
x[60] 0
x[61] 1
x[62] 1
x[63] 1
x[64] 0
x[65] 1
x[66] 1
x[67] 0
x[68] 1
x[69] 1
x[70] 1
x[71] 0
x[72] 1
x[73] 1
x[74] 0
x[75] 0
x[76] 1
x[77] 0
x[78] 1
x[79] 0
x[80] 0
x[81] 0
x[82] 0
x[83] 1
x[84] 0
x[85] 0
x[86] 1
x[87] 1
x[88] 0
x[89] 0
x[90] 1
x[91] 0
x[92] 1
x[93] 1
x[94] 0
x[95] 0
x[96] 0
x[97] 0
x[98] 1
x[99] 1
x[100] 1
x[101] 1
x[102] 0
x[103] 0
x[104] 1
x[105] 1
x[106] 1
x[107] 0
x[108] 1
x[109] 0
x[110] 0
x[111] 0
x[112] 1
x[113] 1
x[114] 0
x[115] 1
x[116] 0
x[117] 1
x[118] 1
x[119] 1
x[120] 1
x[121] 1
x[122] 1
x[123] 1
x[124] 1
x[125] 1
x[126] 1
x[127] 0
x[128] 1
x[129] 1
x[130] 0
x[131] 0
x[132] 0
x[133] 1
x[134] 0
x[135] 0
x[136] 1
x[137] 1
x[138] 0
x[139] 1
x[140] 1
x[141] 0
x[142] 0
x[143] 0
x[144] 1
x[145] 1
x[146] 0
x[147] 1
x[148] 0
x[149] 1
x[150] 1
x[151] 1
x[152] 1
x[153] 0
x[154] 0
x[155] 1
x[156] 1
x[157] 0
x[158] 1
x[159] 0
x[160] 0
x[161] 1
x[162] 1
x[163] 0
x[164] 0
x[165] 0
x[166] 0
x[167] 0
x[168] 0
x[169] 0
x[170] 1
x[171] 0
x[172] 1
x[173] 1
x[174] 0
x[175] 0
x[176] 1
x[177] 0
x[178] 1
x[179] 0
x[180] 0
x[181] 0
x[182] 1
x[183] 0
x[184] 0
x[185] 1
x[186] 0
x[187] 0
x[188] 1
x[189] 1
x[190] 1
x[191] 0
x[192] 0
x[193] 1
x[194] 0
x[195] 1
x[196] 0
x[197] 0
x[198] 1
x[199] 0
x[200] 1
x[201] 1
x[202] 0
x[203] 0
x[204] 1
x[205] 1
x[206] 0
x[207] 1
x[208] 1
x[209] 1
x[210] 1
x[211] 1
x[212] 0
x[213] 0
x[214] 1
x[215] 1
x[216] 1
x[217] 1
x[218] 0
x[219] 1
x[220] 1
x[221] 1
x[222] 1
x[223] 0
x[224] 1
x[225] 0
x[226] 1
x[227] 1
x[228] 1
x[229] 0
x[230] 1
x[231] 0
x[232] 0
x[233] 1
x[234] 1
x[235] 0
x[236] 0
x[237] 0
x[238] 1
x[239] 1
x[240] 0
x[241] 0
x[242] 0
x[243] 1
x[244] 1
x[245] 0
x[246] 1
x[247] 0
x[248] 1
x[249] 0
x[250] 0
x[251] 1
x[252] 1
x[253] 1
x[254] 1
x[255] 0
x[256] 1
x[257] 1
x[258] 0
x[259] 1
x[260] 1
x[261] 1
x[262] 1
x[263] 1
x[264] 0
x[265] 0
x[266] 1
x[267] 1
x[268] 1
x[269] 0
x[270] 1
x[271] 0
x[272] 1
x[273] 1
x[274] 0
x[275] 0
x[276] 1
x[277] 1
x[278] 1
x[279] 0
x[280] 1
x[281] 1
x[282] 1
x[283] 0
x[284] 1
x[285] 0
x[286] 0
x[287] 1
x[288] 1
x[289] 1
x[290] 1
x[291] 1
x[292] 1
x[293] 1
x[294] 0
x[295] 1
x[296] 1
x[297] 0
x[298] 1
x[299] 1
x[300] 0
x[301] 1
x[302] 1
x[303] 0
x[304] 0
x[305] 1
x[306] 1
x[307] 0
x[308] 1
x[309] 1
x[310] 0
x[311] 0
x[312] 0
x[313] 0
x[314] 0
x[315] 1
x[316] 0
x[317] 1
x[318] 1
x[319] 1
x[320] 0
x[321] 0
x[322] 0
x[323] 1
x[324] 1
x[325] 0
x[326] 1
x[327] 0
x[328] 0
x[329] 0
x[330] 1
x[331] 0
x[332] 1
x[333] 0
x[334] 0
x[335] 1
x[336] 1
x[337] 0
x[338] 0
x[339] 0
x[340] 1
x[341] 1
x[342] 1
x[343] 1
x[344] 0
x[345] 1
x[346] 0
x[347] 1
x[348] 0
x[349] 1
x[350] 1
x[351] 0
x[352] 0
x[353] 1
x[354] 1
x[355] 1
x[356] 1
x[357] 1
x[358] 1
x[359] 1
x[360] 0
x[361] 1
x[362] 0
x[363] 0
x[364] 0
x[365] 1
x[366] 1
x[367] 0
x[368] 1
x[369] 0
x[370] 0
x[371] 0
x[372] 0
x[373] 1
x[374] 0
x[375] 0
x[376] 1
x[377] 0
x[378] 0
x[379] 1
x[380] 1
x[381] 1
x[382] 1
x[383] 0
x[384] 1
x[385] 0
x[386] 0
x[387] 0
x[388] 0
x[389] 1
x[390] 0
x[391] 0
x[392] 0
x[393] 1
x[394] 0
x[395] 1
x[396] 1
x[397] 0
x[398] 1
x[399] 0
x[400] 1
x[401] 1
x[402] 0
x[403] 1
x[404] 0
x[405] 0
x[406] 1
x[407] 1
x[408] 0
x[409] 1
x[410] 0
x[411] 1
x[412] 1
x[413] 0
x[414] 1
x[415] 0
x[416] 1
x[417] 0
x[418] 1
x[419] 1
x[420] 1
x[421] 0
x[422] 0
x[423] 1
x[424] 1
x[425] 0
x[426] 1
x[427] 0
x[428] 0
x[429] 0
x[430] 1
x[431] 1
x[432] 1
x[433] 1
x[434] 0
x[435] 0
x[436] 0
x[437] 0
x[438] 0
x[439] 1
x[440] 0
x[441] 1
x[442] 1
x[443] 1
x[444] 1
x[445] 1
x[446] 1
x[447] 0
x[448] 0
x[449] 1
x[450] 0
x[451] 1
x[452] 1
x[453] 0
x[454] 0
x[455] 0
x[456] 1
x[457] 1
x[458] 0
x[459] 0
x[460] 1
x[461] 1
x[462] 1
x[463] 1
x[464] 0
x[465] 1
x[466] 1
x[467] 1
x[468] 1
x[469] 0
x[470] 1
x[471] 0
x[472] 1
x[473] 1
x[474] 1
x[475] 1
x[476] 1
x[477] 1
x[478] 1
x[479] 0
x[480] 0
x[481] 1
x[482] 1
x[483] 1
x[484] 0
x[485] 0
x[486] 0
x[487] 1
x[488] 0
x[489] 0
x[490] 1
x[491] 1
x[492] 1
x[493] 0
x[494] 1
x[495] 1
x[496] 0
x[497] 0
x[498] 1
x[499] 1
x[500] 1
x[501] 0
x[502] 0
x[503] 1
x[504] 1
x[505] 1
x[506] 0
x[507] 1
x[508] 1
x[509] 1
x[510] 1
x[511] 1
x[512] 1
x[513] 1
x[514] 1
x[515] 0
x[516] 1
x[517] 1
x[518] 0
x[519] 0
x[520] 0
x[521] 1
x[522] 0
x[523] 1
x[524] 0
x[525] 1
x[526] 1
x[527] 0
x[528] 1
x[529] 1
x[530] 1
x[531] 1
x[532] 1
x[533] 0
x[534] 0
x[535] 1
x[536] 0
x[537] 0
x[538] 0
x[539] 0
x[540] 1
x[541] 1
x[542] 0
x[543] 1
x[544] 1
x[545] 0
x[546] 0
x[547] 1
x[548] 1
x[549] 1
x[550] 0
x[551] 0
x[552] 0
x[553] 0
x[554] 1
x[555] 1
x[556] 0
x[557] 0
x[558] 0
x[559] 1
x[560] 1
x[561] 0
x[562] 0
x[563] 1
x[564] 1
x[565] 0
x[566] 1
x[567] 1
x[568] 0
x[569] 1
x[570] 0
x[571] 1
x[572] 0
x[573] 1
x[574] 1
x[575] 1
x[576] 0
x[577] 1
x[578] 1
x[579] 0
x[580] 0
x[581] 1
x[582] 0
x[583] 0
x[584] 0
x[585] 0
x[586] 1
x[587] 0
x[588] 0
x[589] 1
x[590] 1
x[591] 0
x[592] 0
x[593] 0
x[594] 1
x[595] 0
x[596] 0
x[597] 1
x[598] 1
x[599] 0
x[600] 1
x[601] 1
x[602] 1
x[603] 0
x[604] 0
x[605] 0
x[606] 0
x[607] 0
x[608] 0
x[609] 1
x[610] 1
x[611] 0
x[612] 1
x[613] 0
x[614] 1
x[615] 1
x[616] 1
x[617] 1
x[618] 0
x[619] 1
x[620] 0
x[621] 1
x[622] 1
x[623] 0
x[624] 1
x[625] 0
x[626] 1
x[627] 0
x[628] 1
x[629] 1
x[630] 1
x[631] 0
x[632] 1
x[633] 1
x[634] 0
x[635] 1
x[636] 0
x[637] 1
x[638] 1
x[639] 0
x[640] 0
x[641] 1
x[642] 1
x[643] 1
x[644] 0
x[645] 1
x[646] 1
x[647] 0
x[648] 1
x[649] 1
x[650] 1
x[651] 0
x[652] 1
x[653] 1
x[654] 0
x[655] 1
x[656] 1
x[657] 1
x[658] 1
x[659] 0
x[660] 1
x[661] 1
x[662] 0
x[663] 1
x[664] 0
x[665] 0
x[666] 1
x[667] 1
x[668] 0
x[669] 0
x[670] 0
x[671] 0
x[672] 0
x[673] 1
x[674] 1
x[675] 1
x[676] 1
x[677] 1
x[678] 1
x[679] 1
x[680] 0
x[681] 0
x[682] 1
x[683] 1
x[684] 1
x[685] 1
x[686] 1
x[687] 1
x[688] 0
x[689] 1
x[690] 1
x[691] 1
x[692] 0
x[693] 1
x[694] 0
x[695] 0
x[696] 1
x[697] 0
x[698] 0
x[699] 1
x[700] 0
x[701] 0
x[702] 1
x[703] 1
x[704] 0
x[705] 0
x[706] 0
x[707] 1
x[708] 0
x[709] 0
x[710] 1
x[711] 0
x[712] 1
x[713] 0
x[714] 0
x[715] 0
x[716] 1
x[717] 0
x[718] 0
x[719] 1
x[720] 0
x[721] 1
x[722] 0
x[723] 1
x[724] 0
x[725] 1
x[726] 0
x[727] 1
x[728] 1
x[729] 1
x[730] 1
x[731] 0
x[732] 1
x[733] 0
x[734] 1
x[735] 0
x[736] 0
x[737] 0
x[738] 0
x[739] 1
x[740] 1
x[741] 1
x[742] 0
x[743] 0
x[744] 1
x[745] 1
x[746] 1
x[747] 1
x[748] 0
x[749] 1
x[750] 1
x[751] 0
x[752] 1
x[753] 1
x[754] 0
x[755] 0
x[756] 1
x[757] 0
x[758] 1
x[759] 1
x[760] 1
x[761] 1
x[762] 1
x[763] 1
x[764] 0
x[765] 0
x[766] 1
x[767] 0
x[768] 1
x[769] 1
x[770] 1
x[771] 1
x[772] 1
x[773] 1
x[774] 1
x[775] 1
x[776] 0
x[777] 0
x[778] 0
x[779] 1
x[780] 0
x[781] 0
x[782] 1
x[783] 1
x[784] 1
x[785] 1
x[786] 0
x[787] 1
x[788] 1
x[789] 1
x[790] 1
x[791] 0
x[792] 1
x[793] 1
x[794] 1
x[795] 1
x[796] 0
x[797] 0
x[798] 1
x[799] 0
x[800] 0
x[801] 0
x[802] 0
x[803] 1
x[804] 1
x[805] 0
x[806] 1
x[807] 1
x[808] 0
x[809] 1
x[810] 1
x[811] 0
x[812] 0
x[813] 1
x[814] 1
x[815] 1
x[816] 0
x[817] 0
x[818] 1
x[819] 0
x[820] 0
x[821] 1
x[822] 1
x[823] 0
x[824] 1
x[825] 1
x[826] 0
x[827] 0
x[828] 0
x[829] 0
x[830] 1
x[831] 1
x[832] 1
x[833] 1
x[834] 1
x[835] 1
x[836] 0
x[837] 1
x[838] 1
x[839] 0
x[840] 1
x[841] 1
x[842] 1
x[843] 0
x[844] 1
x[845] 0
x[846] 1
x[847] 1
x[848] 1
x[849] 0
x[850] 1
x[851] 0
x[852] 1
x[853] 1
x[854] 0
x[855] 0
x[856] 0
x[857] 0
x[858] 1
x[859] 0
x[860] 1
x[861] 0
x[862] 0
x[863] 0
x[864] 0
x[865] 1
x[866] 0
x[867] 1
x[868] 1
x[869] 0
x[870] 1
x[871] 0
x[872] 1
x[873] 1
x[874] 0
x[875] 1
x[876] 1
x[877] 0
x[878] 0
x[879] 1
x[880] 1
x[881] 1
x[882] 1
x[883] 0
x[884] 1
x[885] 0
x[886] 0
x[887] 1
x[888] 0
x[889] 0
x[890] 0
x[891] 0
x[892] 1
x[893] 1
x[894] 0
x[895] 0
x[896] 0
x[897] 1
x[898] 1
x[899] 1
x[900] 1
x[901] 1
x[902] 1
x[903] 1
x[904] 1
x[905] 0
x[906] 1
x[907] 0
x[908] 1
x[909] 0
x[910] 0
x[911] 0
x[912] 0
x[913] 0
x[914] 0
x[915] 0
x[916] 0
x[917] 1
x[918] 1
x[919] 0
x[920] 1
x[921] 1
x[922] 1
x[923] 0
x[924] 0
x[925] 1
x[926] 1
x[927] 0
x[928] 0
x[929] 1
x[930] 1
x[931] 1
x[932] 0
x[933] 0
x[934] 1
x[935] 1
x[936] 1
x[937] 1
x[938] 1
x[939] 1
x[940] 1
x[941] 0
x[942] 1
x[943] 0
x[944] 1
x[945] 1
x[946] 0
x[947] 1
x[948] 0
x[949] 0
x[950] 1
x[951] 1
x[952] 0
x[953] 1
x[954] 0
x[955] 1
x[956] 0
x[957] 1
x[958] 1
x[959] 0
x[960] 1
x[961] 0
x[962] 1
x[963] 1
x[964] 1
x[965] 1
x[966] 1
x[967] 0
x[968] 1
x[969] 1
x[970] 0
x[971] 1
x[972] 0
x[973] 1
x[974] 0
x[975] 1
x[976] 1
x[977] 1
x[978] 0
x[979] 0
x[980] 1
x[981] 0
x[982] 1
x[983] 0
x[984] 1
x[985] 0
x[986] 1
x[987] 0
x[988] 1
x[989] 0
x[990] 1
x[991] 0
x[992] 0
x[993] 1
x[994] 1
x[995] 0
x[996] 0
x[997] 1
x[998] 1
x[999] 1
